
  32    4
  10   10   10   10

   0   0   0   0   0   2 2 6 
   3   1   1   0   1   1 3 
   7   0   6   1   2   1 4 
   5   0   3   5   5   2 15 5 
   8   3   3   0   4   1 7 
   8   4   2   0   1   2 15 9 
   1   0   9   6   4   1 8 
   9   2   0   3   7   1 9 
   3   2   4   7   0   1 10 
   3   4   0   3   2   1 11 
  10   0   7   4   4   1 12 
   2   2   4   4   0   2 22 13 
   9   0   4   4  10   1 14 
   9   5   0   3   2   1 16 
   9   5   0   3   4   1 16 
   2   5   0   5   5   1 17 
   4   5   5   0   3   2 20 18 
   6   5   3   2   0   1 19 
   3   0   3   5   6   1 21 
   8   4   0   4   5   1 21 
   2   5   4   6   0   1 23 
   2   3   3   2   0   1 23 
   8   4   5   0   9   2 29 24 
   4   3   3   5   0   1 25 
   7   0   5   4   2   2 31 26 
   4   5   4   0   3   1 27 
   1   4   0   5   4   1 28 
   7   6   5   3   0   1 30 
   8   8   3   0   2   1 30 
   7   3   2   3   0   1 32
   2   4   0   5   3   1 32
   0   0   0   0   0   0 
